Version identifier: 22.1.0.0 | 2022-03-09 | 1a383f8ce
CPXPARAM_Read_DataCheck                          1
CPXPARAM_TimeLimit                               600
Tried aggregator 3 times.
MIP Presolve eliminated 68194 rows and 6536 columns.
MIP Presolve modified 868 coefficients.
Aggregator did 62824 substitutions.
Reduced MIP has 7345 rows, 64668 columns, and 136798 nonzeros.
Reduced MIP has 64634 binaries, 34 generals, 0 SOSs, and 0 indicators.
Presolve time = 0.75 sec. (742.22 ticks)
Tried aggregator 1 time.
Detecting symmetries...
Reduced MIP has 7345 rows, 64668 columns, and 136798 nonzeros.
Reduced MIP has 64634 binaries, 34 generals, 0 SOSs, and 0 indicators.
Presolve time = 0.14 sec. (100.76 ticks)
Probing fixed 51 vars, tightened 0 bounds.
Probing changed sense of 12 constraints.
Probing time = 0.15 sec. (18.45 ticks)
Clique table members: 131186.
MIP emphasis: balance optimality and feasibility.
MIP search method: dynamic search.
Parallel mode: deterministic, using up to 8 threads.
Root relaxation solution time = 1.11 sec. (537.19 ticks)

        Nodes                                         Cuts/
   Node  Left     Objective  IInf  Best Integer    Best Bound    ItCnt     Gap

      0     0       34.3895  5256                     34.3895       25         
      0     0       54.0000   947                    Cuts: 36     9183         
      0     0       54.0000   842                    Cuts: 73    16895         
      0     0       54.0000   737                ZeroHalf: 63    25599         
      0     0       54.0000   940                ZeroHalf: 42    33531         
      0     0       54.0000   595                 ZeroHalf: 3    42266         
*     0+    0                           63.0000       54.0000            14.29%
      0     0       54.0000   749       63.0000      Cuts: 43    51727   14.29%
*     0+    0                           62.0000       54.0000            12.90%
Heuristic still looking.
Heuristic still looking.
*     0+    0                           60.0000       54.0000            10.00%
      0     2       54.0000   716       60.0000       54.0000    51727   10.00%
Elapsed time = 164.42 sec. (111186.66 ticks, tree = 0.02 MB, solutions = 3)
      1     3       54.0000   452       60.0000       54.0000    62042   10.00%
      2     4       54.0000   543       60.0000       54.0000    69405   10.00%
      3     5       54.0000   332       60.0000       54.0000    78181   10.00%
      4     3       54.0000   456       60.0000       54.0000    64014   10.00%
      5     4       54.0000   401       60.0000       54.0000    68368   10.00%
      6     8       54.0000   391       60.0000       54.0000   102251   10.00%
      7     7       54.0000   500       60.0000       54.0000    98696   10.00%
     11    10       54.0000   497       60.0000       54.0000   115261   10.00%
     12    13       54.0000   320       60.0000       54.0000   140160   10.00%
     16    11       54.0000   560       60.0000       54.0000   124925   10.00%
Elapsed time = 274.71 sec. (143101.38 ticks, tree = 0.09 MB, solutions = 3)
     19    18       54.0000   438       60.0000       54.0000   187430   10.00%
     23    16       54.0000   482       60.0000       54.0000   177877   10.00%
     25    17       54.0000   481       60.0000       54.0000   178370   10.00%
     31    19       54.0000   467       60.0000       54.0000   207178   10.00%
     33     7       54.0000   455       60.0000       54.0000    94465   10.00%
     34    21       54.0625   739       60.0000       54.0000   241253   10.00%
     38    16       54.0000   274       60.0000       54.0000   175996   10.00%
     45    32       54.0000   597       60.0000       54.0000   318016   10.00%
     48    22       54.0000  1883       60.0000       54.0000   233181   10.00%
     51    39       54.0000   689       60.0000       54.0000   482540   10.00%
Elapsed time = 356.08 sec. (158947.88 ticks, tree = 0.96 MB, solutions = 3)
     53    41       54.0000   510       60.0000       54.0000   485349   10.00%
     62    38       54.0000   385       60.0000       54.0000   439143   10.00%
     73    52       54.0625   452       60.0000       54.0000   570693   10.00%
     81    58       54.0000   586       60.0000       54.0000   619974   10.00%
     92    74       54.0000   326       60.0000       54.0000   717633   10.00%
    107    71       54.0714   422       60.0000       54.0000   641191   10.00%
    123    80       54.0000   328       60.0000       54.0000   724625   10.00%
    138    91       54.0833   481       60.0000       54.0000   735939   10.00%
    153    21       54.0000   370       60.0000       54.0000   282613   10.00%
    163   109       54.0000   276       60.0000       54.0000   774879   10.00%
Elapsed time = 403.60 sec. (169050.64 ticks, tree = 2.05 MB, solutions = 3)
    176   120       54.0000   236       60.0000       54.0000   790136   10.00%
    194   112       54.0000   327       60.0000       54.0000   780968   10.00%
    209   125       54.0000   275       60.0000       54.0000   797470   10.00%
    224   112       54.3929   302       60.0000       54.0000   772793   10.00%
    240   234       54.0000   327       60.0000       54.0000  1069371   10.00%
    257   237       54.0000   465       60.0000       54.0000  1074386   10.00%
    279   189       55.0000   498       60.0000       54.0000   990446   10.00%
    304   216       54.0000   267       60.0000       54.0000  1016737   10.00%
    318   159       54.0909   390       60.0000       54.0000   947846   10.00%
    328   214       54.0000   384       60.0000       54.0000  1027909   10.00%
Elapsed time = 461.42 sec. (178921.81 ticks, tree = 3.33 MB, solutions = 3)
    338   245       54.0000   266       60.0000       54.0000  1089945   10.00%
    346   275       54.0094   770       60.0000       54.0000  1139558   10.00%
    356   261       54.9971   579       60.0000       54.0000  1114564   10.00%
    368   267       55.5000   162       60.0000       54.0000  1110756   10.00%
    378   291       54.2083   443       60.0000       54.0000  1157730   10.00%
    390   298       54.0000   479       60.0000       54.0000  1172896   10.00%
    401   265       56.0778   345       60.0000       54.0000  1117830   10.00%
*   422   326      integral     0       59.0000       54.0000  1204368    8.47%
    429   334       54.0000   396       59.0000       54.0000  1218792    8.47%
    450   188       54.1667   237       59.0000       54.0000   977560    8.47%
    480   394       54.3333   214       59.0000       54.0000  1280965    8.47%
Elapsed time = 512.91 sec. (188934.61 ticks, tree = 6.50 MB, solutions = 4)
    510   411       54.2083   486       59.0000       54.0000  1305336    8.47%
    535   424       54.1000   578       59.0000       54.0000  1328924    8.47%
    554   389       56.9000    91       59.0000       54.0000  1257391    8.47%
    574   428       54.1667   506       59.0000       54.0000  1336346    8.47%
    580   435       54.0714   528       59.0000       54.0000  1357011    8.47%
    591   437       54.0964   749       59.0000       54.0000  1360864    8.47%
    603   502       57.8750   163       59.0000       54.0000  1415697    8.47%
    617   515       54.0000   308       59.0000       54.0000  1434923    8.47%
    624   519       54.0000   400       59.0000       54.0000  1439764    8.47%
    631   398       54.3333   205       59.0000       54.0000  1284755    8.47%
Elapsed time = 570.76 sec. (199271.87 ticks, tree = 6.59 MB, solutions = 4)
    638   546       54.5000   253       59.0000       54.0000  1486659    8.47%
    643   549       54.7500   125       59.0000       54.0000  1487100    8.47%
    646   535       54.1667   474       59.0000       54.0000  1478910    8.47%
Starting limited solution polishing.
    654   554       54.2672   616       59.0000       54.0000  1499327    8.47%
    663   540       54.1667   535       59.0000       54.0000  1486676    8.47%
    677   564       54.2250   284       59.0000       54.0000  1507481    8.47%
*   688+  570                           58.0000       54.0000             6.90%
    694   577       54.8750   538       58.0000       54.0000  1537511    6.90%
    701   586       54.1614   731       58.0000       54.0000  1564102    6.90%

Clique cuts applied:  1
Zero-half cuts applied:  94
Lift and project cuts applied:  2
Gomory fractional cuts applied:  20

Root node processing (before b&c):
  Real time             =  164.21 sec. (111120.38 ticks)
Parallel b&c, 8 threads:
  Real time             =  435.87 sec. (97221.38 ticks)
  Sync time (average)   =   83.42 sec.
  Wait time (average)   =    0.00 sec.
                          ------------
Total (root+branch&cut) =  600.08 sec. (208341.75 ticks)
